/*********************************************
 * OPL 12.6.0.0 Data
 * Author: QZ61P8
 * Creation Date: 10.07.2014 at 08:59:12
 *********************************************/


nNetworks = 8;
nTime = 10;
nInterfaceTypes = 2;
nFlows = 8;

//channel model: generated Tue Nov 08 15:55:12 CET 2016
availChunkBuckets = //[Networks, Time]  
[
	[34, 34, 34, 34, 34, 34, 34, 34, 34, 34]
,
	[0, 0, 42, 84, 84, 84, 84, 42, 0, 0]
,
	[0, 0, 0, 44, 44, 44, 0, 0, 0, 0]
,
	[0, 80, 80, 80, 0, 0, 0, 0, 0, 0]
,
	[48, 48, 48, 48, 48, 48, 48, 48, 48, 48]
,
	[0, 0, 33, 33, 33, 0, 0, 0, 0, 0]
,
	[0, 0, 59, 59, 59, 0, 0, 0, 0, 0]
,
	[0, 0, 0, 0, 0, 20, 20, 0, 0, 0]

];
	
network_cost = //[Networks] 
	[25, 3, 3, 2, 19, 3, 2, 3];				//static cost per channel (change later to more realistic model)
network_lcy =
	[7, 3, 1, 1, 9, 1, 1, 3];
network_jit =
	[6, 6, 4, 5, 8, 6, 7, 6];	

network_type= //[Networks] 				//each channel has a specific type; e.g. WiFi, LTE..
	[2, 1, 1, 1, 2, 1, 1, 1];		
nClientInterfaces = //[InterfaceTypes]
	[1, 1];	

//requests: generated Tue Nov 08 15:55:12 CET 2016
nChunks = 				[60, 121, 48, 10, 45, 170, 43, 8];		//[Flows]		
deadline= 				[8, 5, 6, 9, 6, 5, 8, 7];		//[Flows] 
prefStartTime = 		[3, 0, 3, 0, 1, 0, 0, 0];		//[Flows]
tpMaxWindow = 			[1, 1, 1, 1, 1, 1, 1, 1];		//[Flows]	//0 says not relevant/no maximum transfer rate; upper throughput limit
tpMaxChunks = 			[100000, 100000, 16, 100000, 100000, 100000, 5, 100000]; 		//maximum of chunks in above specified time frame
tpMinWindow = 			[10, 100000, 1, 3, 11, 100000, 1, 3];		//[Flows]  //1000 says not relevant / no minimum transfer rate
tpMinChunks = 			[30, 1, 8, 1, 24, 1, 2, 1]; 		//minimum of chunks in above specified time frame; lower throughput limit
latency = 				[10, 10, 4, 10, 10, 10, 4, 10];	
jitter = 				[10, 10, 4, 10, 10, 10, 4, 10];

hysteresis = 500;
tpMinAmp = 100;
importance = [
	[5, 0, 20, 8, 5, 0, 20, 7],	//deadline
	[4, 0, 10, 9, 2, 0, 10, 8],	//start time
	[, , , , , , , ],	//throughput upper bound
	[8, 0, 50, 4, 6, 0, 50, 3],	//throughput lower bound
	[6, 4, 6, 18, 4, 1, 5, 12],	//unsched
	[0, 0, 7, 0, 0, 0, 7, 0],	//latency
	[0, 0, 9, 0, 0, 0, 9, 0]	//jitter
]; //[ImportanceTypes, Flows]

//user profiles
userImportance = [5, 1, 9, 7, 5, 2, 10, 10]; //[Flows]
costImp = 15; //former willingness to pay is now inversely proportional value: cost importance 
 
